94 169 141 152 151 36 186 95 117 129 120 172 24 167 88 66 135 57 113 185 110 125 118 97 178 30 85 170 31 184 68 116 87 112 103 37 2 18 179 35 166 96 8 134 59 162 10 149 65 171 122 12 20 109 194 104 108 23 144 177 165 25 111 29 72 180 78 21 188 138 156 48 197 55 15 26 67 1 52 27 164 28 102 198 121 3 63 176 83 174 73 114 192 124 19 146 158 119 153 107 34 69 159 39 46 45 74 84 123 136 145 161 38 82 189 93 79 56 181 193 54 90 163 76 99 133 70 49 195 22 71 127 43 60 132 16 5 42 137 51 130 32 53 75 106 98 168 40 105 91 157 33 86 150 80 62 191 7 77 196 126 143 131 64 115 160 199 89 47 92 17 154 101 173 61 175 100 6 50 81 187 142 13 183 44 41 140 14 0 4 147 182 11 148 58 190 128 139 9 155 

